20 31 
25 41 
55 72 
52 30 
49 35 
64 9 
99 25 
36 60 
41 77 
70 38 
53 29 
25 60 
13 52 
83 14 
39 39 
16 59 
22 94 
0 77 
66 53 
59 67 
40 24 
28 39 
1 64 
99 42 
93 21 
81 46 
50 58 
58 15 
62 41 
30 2 
32 98 
61 6 
92 14 
36 58 
19 95 
77 59 
71 5 
98 73 
21 49 
15 14 
22 48 
13 24 
6 71 
39 21 
65 69 
23 97 
68 36 
56 12 
50 92 
23 69 
